Minimize
  0.05 y_0 + 0.0526315789473684 y_1 + 0.0833333333333333 y_2
   + 0.0476190476190476 y_3 + 0.1111111111111111 y_4
   + 0.0384615384615385 y_5 + 0.0714285714285714 y_6
   + 0.0555555555555556 y_7 + 0.0666666666666667 y_8
   + 0.0769230769230769 y_9 + 0.0625 y_10 + 0.0476190476190476 y_11
   + 0.0454545454545455 y_12 + 0.0625 y_13 + 0.0526315789473684 y_14
   + 0.0714285714285714 y_15 + 0.1111111111111111 y_16
   + 0.3333333333333333 y_17 + 0.1 y_18 + 0.125 y_19 + 0.0625 y_20
   + 0.0555555555555556 y_21 + 0.0555555555555556 y_22
   + 0.0555555555555556 y_23 + 0.0526315789473684 y_24
   + 0.0454545454545455 y_25 + 0.0526315789473684 y_26
   + 0.0526315789473684 y_27 + 0.3333333333333333 y_28 + 0.125 y_29
   + 0.1428571428571428 y_30 + 0.0526315789473684 y_31
   + 0.0588235294117647 y_32 + 0.0588235294117647 y_33
   + 0.1666666666666667 y_34 + 0.0416666666666667 y_35
   + 0.0714285714285714 y_36 + 0.1111111111111111 y_37
   + 0.0555555555555556 y_38 + 0.0714285714285714 y_39 + 0.0625 y_40
   + 0.0454545454545455 y_41 + 0.05 y_42 + 0.0833333333333333 y_43
   + 0.0588235294117647 y_44 + 0.2 y_45 + 0.0454545454545455 y_46
   + 0.0434782608695652 y_47 + 0.1111111111111111 y_48
   + 0.0434782608695652 y_49 + 0.1666666666666667 y_50 + 0.0625 y_51
   + 0.0454545454545455 y_52 + 0.1666666666666667 y_53
   + 0.0588235294117647 y_54 + 0.0625 y_55 + 0.1111111111111111 y_56
   + 0.0909090909090909 y_57 + 0.0476190476190476 y_58
   + 0.0666666666666667 y_59 + 0.0526315789473684 y_60
   + 0.0476190476190476 y_61 + 0.0555555555555556 y_62 + 0.125 y_63
   + 0.0384615384615385 y_64 + 0.1666666666666667 y_65
   + 0.0666666666666667 y_66 + 0.0454545454545455 y_67
   + 0.0714285714285714 y_68 + 0.125 y_69 + 0.05 y_70
   + 0.0555555555555556 y_71 + 0.0625 y_72 + 0.0526315789473684 y_73
   + 0.0714285714285714 y_74 + 0.05 y_75 + 0.0454545454545455 y_76
   + 0.05 y_77 + 0.0526315789473684 y_78 + 0.0625 y_79 + 0.2 y_80
   + 0.0526315789473684 y_81 + y_82 + 0.1 y_83 + 0.0454545454545455 y_84
   + 0.0454545454545455 y_85 + 0.05 y_86 + 0.1428571428571428 y_87
   + 0.0526315789473684 y_88 + 0.125 y_89 + 0.0769230769230769 y_90
   + 0.04 y_91 + 0.0666666666666667 y_92 + 0.1 y_93
   + 0.0666666666666667 y_94 + 0.0769230769230769 y_95
   + 0.1666666666666667 y_96 + 0.0588235294117647 y_97 + 0.0625 y_98
   + 0.0588235294117647 y_99 - 8.944910390196091 Constant
Subject To
 c_0: y_99 = 1
 c_1_0: y_0 + y_3 + y_11 + y_14 + y_22 + y_24 + y_41 + y_52 + y_54 + y_61
   + y_67 + y_77 + y_79 + y_85 + y_97 >= 1
 c_1_1: y_1 + y_7 + y_12 + y_20 + y_23 + y_25 + y_26 + y_32 + y_38 + y_42
   + y_44 + y_46 + y_58 + y_60 + y_62 + y_75 + y_78 + y_81 + y_84 >= 1
 c_1_2: y_2 + y_9 + y_15 + y_18 + y_37 + y_43 + y_48 + y_56 + y_57 + y_59
   + y_69 + y_92 + y_93 + y_98 >= 1
 c_1_3: y_0 + y_3 + y_22 + y_41 + y_52 + y_54 + y_61 + y_67 + y_77 + y_85
   >= 1
 c_1_4: y_4 + y_45 + y_53 + y_63 + y_83 + y_89 >= 1
 c_1_5: y_5 + y_35 + y_47 + y_49 + y_64 + y_91 >= 1
 c_1_6: y_6 + y_8 + y_13 + y_39 + y_99 >= 1
 c_1_7: y_1 + y_7 + y_31 + y_32 + y_38 + y_60 + y_70 + y_71 + y_75 + y_78
   + y_88 + y_99 >= 1
 c_1_8: y_6 + y_8 + y_13 + y_39 + y_99 >= 1
 c_1_9: y_2 + y_9 + y_10 + y_15 + y_20 + y_44 + y_57 + y_83 + y_90 + y_93
   + y_94 + y_95 >= 1
 c_1_10: y_9 + y_10 + y_14 + y_15 + y_20 + y_23 + y_24 + y_33 + y_42 + y_44
   + y_59 + y_62 + y_72 + y_98 >= 1
 c_1_11: y_0 + y_11 + y_14 + y_24 + y_33 + y_41 + y_47 + y_49 + y_85 >= 1
 c_1_12: y_1 + y_12 + y_25 + y_26 + y_42 + y_46 + y_58 + y_60 + y_75 + y_76
   + y_81 + y_84 >= 1
 c_1_13: y_6 + y_8 + y_13 + y_39 + y_70 + y_71 + y_99 >= 1
 c_1_14: y_0 + y_10 + y_11 + y_14 + y_22 + y_24 + y_33 + y_42 + y_49 + y_54
   + y_59 + y_72 + y_85 + y_98 >= 1
 c_1_15: y_2 + y_9 + y_10 + y_15 + y_20 + y_44 + y_57 + y_59 + y_72 + y_90
   + y_93 + y_94 + y_95 + y_98 >= 1
 c_1_16: y_16 + y_30 + y_34 + y_45 + y_48 + y_53 + y_57 + y_63 + y_69
   + y_83 + y_87 + y_89 + y_90 + y_93 + y_95 >= 1
 c_1_17: y_17 + y_28 + y_34 + y_45 + y_53 + y_80 + y_82 >= 1
 c_1_18: y_2 + y_18 + y_19 + y_29 + y_37 + y_43 + y_48 + y_56 + y_69 + y_87
   >= 1
 c_1_19: y_18 + y_19 + y_29 + y_37 + y_50 + y_56 + y_65 + y_69 + y_87
   + y_96 >= 1
 c_1_20: y_1 + y_9 + y_10 + y_15 + y_20 + y_23 + y_26 + y_32 + y_42 + y_44
   + y_59 + y_62 + y_72 + y_90 + y_94 + y_98 >= 1
 c_1_21: y_21 + y_27 + y_36 + y_40 + y_51 + y_55 + y_66 + y_73 + y_86
   + y_97 >= 1
 c_1_22: y_0 + y_3 + y_14 + y_22 + y_24 + y_33 + y_54 + y_59 + y_61 + y_74
   + y_77 + y_79 + y_92 + y_97 + y_98 >= 1
 c_1_23: y_1 + y_10 + y_20 + y_23 + y_24 + y_25 + y_26 + y_32 + y_33 + y_42
   + y_44 + y_58 + y_60 + y_62 + y_72 + y_76 + y_81 + y_84 >= 1
 c_1_24: y_0 + y_10 + y_11 + y_14 + y_22 + y_23 + y_24 + y_33 + y_42 + y_54
   + y_59 + y_62 + y_72 + y_85 + y_98 >= 1
 c_1_25: y_1 + y_12 + y_23 + y_25 + y_26 + y_35 + y_42 + y_46 + y_47 + y_58
   + y_62 + y_76 + y_81 + y_84 >= 1
 c_1_26: y_1 + y_12 + y_20 + y_23 + y_25 + y_26 + y_32 + y_38 + y_42 + y_44
   + y_46 + y_58 + y_60 + y_62 + y_75 + y_76 + y_78 + y_81 + y_84 >= 1
 c_1_27: y_21 + y_27 + y_40 + y_55 + y_66 + y_73 + y_86 + y_97 >= 1
 c_1_28: y_17 + y_28 + y_50 + y_65 + y_80 + y_82 + y_96 >= 1
 c_1_29: y_18 + y_19 + y_29 + y_30 + y_34 + y_37 + y_48 + y_50 + y_56
   + y_65 + y_69 + y_87 + y_96 >= 1
 c_1_30: y_16 + y_29 + y_30 + y_34 + y_37 + y_45 + y_48 + y_53 + y_56
   + y_63 + y_65 + y_69 + y_87 + y_89 + y_93 >= 1
 c_1_31: y_7 + y_31 + y_38 + y_70 + y_71 + y_75 + y_78 + y_88 + y_99 >= 1
 c_1_32: y_1 + y_7 + y_20 + y_23 + y_26 + y_32 + y_38 + y_44 + y_58 + y_60
   + y_62 + y_75 + y_78 + y_81 + y_94 >= 1
 c_1_33: y_10 + y_11 + y_14 + y_22 + y_23 + y_24 + y_33 + y_42 + y_54
   + y_59 + y_62 + y_72 + y_92 + y_98 >= 1
 c_1_34: y_16 + y_17 + y_29 + y_30 + y_34 + y_45 + y_48 + y_53 + y_63
   + y_65 + y_69 + y_80 + y_83 + y_87 + y_89 + y_93 >= 1
 c_1_35: y_5 + y_25 + y_35 + y_42 + y_47 + y_76 + y_84 + y_91 >= 1
 c_1_36: y_21 + y_36 + y_40 + y_43 + y_51 + y_55 + y_66 + y_68 + y_74 >= 1
 c_1_37: y_2 + y_18 + y_19 + y_29 + y_30 + y_37 + y_43 + y_48 + y_50 + y_56
   + y_65 + y_69 + y_87 + y_96 >= 1
 c_1_38: y_1 + y_7 + y_26 + y_31 + y_32 + y_38 + y_44 + y_58 + y_60 + y_75
   + y_78 + y_81 + y_94 >= 1
 c_1_39: y_6 + y_8 + y_13 + y_39 + y_99 >= 1
 c_1_40: y_21 + y_27 + y_36 + y_40 + y_43 + y_55 + y_66 + y_68 + y_74
   + y_79 + y_86 + y_97 >= 1
 c_1_41: y_0 + y_3 + y_11 + y_41 + y_49 + y_52 + y_61 + y_67 + y_77 + y_85
   >= 1
 c_1_42: y_1 + y_10 + y_12 + y_14 + y_20 + y_23 + y_24 + y_25 + y_26 + y_33
   + y_35 + y_42 + y_44 + y_47 + y_58 + y_62 + y_72 + y_76 + y_81 + y_84
   >= 1
 c_1_43: y_2 + y_18 + y_36 + y_37 + y_40 + y_43 + y_56 + y_66 + y_68 + y_74
   + y_92 >= 1
 c_1_44: y_1 + y_9 + y_10 + y_15 + y_20 + y_23 + y_26 + y_32 + y_38 + y_42
   + y_44 + y_60 + y_62 + y_72 + y_81 + y_94 >= 1
 c_1_45: y_4 + y_16 + y_17 + y_30 + y_34 + y_45 + y_53 + y_63 + y_80 + y_89
   >= 1
 c_1_46: y_1 + y_12 + y_25 + y_26 + y_46 + y_58 + y_60 + y_75 + y_78 + y_81
   + y_84 >= 1
 c_1_47: y_5 + y_11 + y_25 + y_35 + y_42 + y_47 + y_49 + y_64 + y_76 + y_91
   >= 1
 c_1_48: y_2 + y_16 + y_18 + y_29 + y_30 + y_34 + y_37 + y_48 + y_56 + y_57
   + y_65 + y_69 + y_83 + y_87 + y_89 + y_93 >= 1
 c_1_49: y_5 + y_11 + y_14 + y_41 + y_47 + y_49 + y_64 + y_85 + y_91 >= 1
 c_1_50: y_19 + y_28 + y_29 + y_37 + y_50 + y_65 + y_69 + y_87 + y_96 >= 1
 c_1_51: y_21 + y_36 + y_51 + y_55 + y_66 + y_73 >= 1
 c_1_52: y_0 + y_3 + y_41 + y_52 + y_61 + y_67 + y_77 + y_85 >= 1
 c_1_53: y_4 + y_16 + y_17 + y_30 + y_34 + y_45 + y_53 + y_63 + y_80 + y_87
   + y_89 >= 1
 c_1_54: y_0 + y_3 + y_14 + y_22 + y_24 + y_33 + y_54 + y_59 + y_74 + y_77
   + y_79 + y_92 + y_97 + y_98 >= 1
 c_1_55: y_21 + y_27 + y_36 + y_40 + y_51 + y_55 + y_66 + y_68 + y_73 >= 1
 c_1_56: y_2 + y_18 + y_19 + y_29 + y_30 + y_37 + y_43 + y_48 + y_56 + y_65
   + y_69 + y_87 >= 1
 c_1_57: y_2 + y_9 + y_15 + y_16 + y_48 + y_57 + y_63 + y_83 + y_89 + y_90
   + y_93 + y_94 + y_95 >= 1
 c_1_58: y_1 + y_12 + y_23 + y_25 + y_26 + y_32 + y_38 + y_42 + y_46 + y_58
   + y_60 + y_75 + y_76 + y_78 + y_81 + y_84 >= 1
 c_1_59: y_2 + y_10 + y_14 + y_15 + y_20 + y_22 + y_24 + y_33 + y_54 + y_59
   + y_72 + y_79 + y_92 + y_98 >= 1
 c_1_60: y_1 + y_7 + y_12 + y_23 + y_26 + y_32 + y_38 + y_44 + y_46 + y_58
   + y_60 + y_62 + y_75 + y_78 + y_81 + y_94 >= 1
 c_1_61: y_0 + y_3 + y_22 + y_41 + y_52 + y_61 + y_67 + y_77 + y_85 >= 1
 c_1_62: y_1 + y_10 + y_20 + y_23 + y_24 + y_25 + y_26 + y_32 + y_33 + y_42
   + y_44 + y_60 + y_62 + y_72 + y_76 + y_81 + y_84 >= 1
 c_1_63: y_4 + y_16 + y_30 + y_34 + y_45 + y_53 + y_57 + y_63 + y_80 + y_83
   + y_89 + y_93 >= 1
 c_1_64: y_5 + y_47 + y_49 + y_64 + y_91 >= 1
 c_1_65: y_19 + y_28 + y_29 + y_30 + y_34 + y_37 + y_48 + y_50 + y_56
   + y_65 + y_69 + y_87 + y_96 >= 1
 c_1_66: y_21 + y_27 + y_36 + y_40 + y_43 + y_51 + y_55 + y_66 + y_68
   + y_74 + y_79 + y_97 >= 1
 c_1_67: y_0 + y_3 + y_41 + y_52 + y_61 + y_67 + y_77 + y_85 >= 1
 c_1_68: y_36 + y_40 + y_43 + y_55 + y_66 + y_68 + y_74 + y_79 + y_92
   + y_97 >= 1
 c_1_69: y_2 + y_16 + y_18 + y_19 + y_29 + y_30 + y_34 + y_37 + y_48 + y_50
   + y_56 + y_65 + y_69 + y_87 + y_89 + y_93 >= 1
 c_1_70: y_7 + y_13 + y_31 + y_70 + y_71 + y_88 + y_99 >= 1
 c_1_71: y_7 + y_13 + y_31 + y_70 + y_71 + y_78 + y_88 + y_99 >= 1
 c_1_72: y_10 + y_14 + y_15 + y_20 + y_23 + y_24 + y_33 + y_42 + y_44
   + y_59 + y_62 + y_72 + y_98 >= 1
 c_1_73: y_21 + y_27 + y_51 + y_55 + y_73 + y_86 >= 1
 c_1_74: y_22 + y_36 + y_40 + y_43 + y_54 + y_66 + y_68 + y_74 + y_79
   + y_92 + y_97 >= 1
 c_1_75: y_1 + y_7 + y_12 + y_26 + y_31 + y_32 + y_38 + y_46 + y_58 + y_60
   + y_75 + y_78 + y_81 + y_88 >= 1
 c_1_76: y_12 + y_23 + y_25 + y_26 + y_35 + y_42 + y_47 + y_58 + y_62
   + y_76 + y_84 + y_91 >= 1
 c_1_77: y_0 + y_3 + y_22 + y_41 + y_52 + y_54 + y_61 + y_67 + y_77 + y_79
   + y_85 + y_86 + y_97 >= 1
 c_1_78: y_1 + y_7 + y_26 + y_31 + y_32 + y_38 + y_46 + y_58 + y_60 + y_71
   + y_75 + y_78 + y_81 + y_88 >= 1
 c_1_79: y_0 + y_22 + y_40 + y_54 + y_59 + y_66 + y_68 + y_74 + y_77 + y_79
   + y_92 + y_97 + y_98 >= 1
 c_1_80: y_17 + y_28 + y_34 + y_45 + y_53 + y_63 + y_80 + y_82 + y_89 >= 1
 c_1_81: y_1 + y_12 + y_23 + y_25 + y_26 + y_32 + y_38 + y_42 + y_44 + y_46
   + y_58 + y_60 + y_62 + y_75 + y_78 + y_81 + y_84 >= 1
 c_1_82: y_17 + y_28 + y_80 + y_82 >= 1
 c_1_83: y_4 + y_9 + y_16 + y_34 + y_48 + y_57 + y_63 + y_83 + y_89 + y_90
   + y_93 + y_95 >= 1
 c_1_84: y_1 + y_12 + y_23 + y_25 + y_26 + y_35 + y_42 + y_46 + y_58 + y_62
   + y_76 + y_81 + y_84 >= 1
 c_1_85: y_0 + y_3 + y_11 + y_14 + y_24 + y_41 + y_49 + y_52 + y_61 + y_67
   + y_77 + y_85 >= 1
 c_1_86: y_21 + y_27 + y_40 + y_73 + y_77 + y_86 + y_97 >= 1
 c_1_87: y_16 + y_18 + y_19 + y_29 + y_30 + y_34 + y_37 + y_48 + y_50
   + y_53 + y_56 + y_65 + y_69 + y_87 + y_89 + y_93 + y_96 >= 1
 c_1_88: y_7 + y_31 + y_70 + y_71 + y_75 + y_78 + y_88 + y_99 >= 1
 c_1_89: y_4 + y_16 + y_30 + y_34 + y_45 + y_48 + y_53 + y_57 + y_63 + y_69
   + y_80 + y_83 + y_87 + y_89 + y_93 >= 1
 c_1_90: y_9 + y_15 + y_16 + y_20 + y_57 + y_83 + y_90 + y_93 + y_94 + y_95
   >= 1
 c_1_91: y_5 + y_35 + y_47 + y_49 + y_64 + y_76 + y_91 >= 1
 c_1_92: y_2 + y_22 + y_33 + y_43 + y_54 + y_59 + y_68 + y_74 + y_79 + y_92
   + y_97 + y_98 >= 1
 c_1_93: y_2 + y_9 + y_15 + y_16 + y_30 + y_34 + y_48 + y_57 + y_63 + y_69
   + y_83 + y_87 + y_89 + y_90 + y_93 + y_95 >= 1
 c_1_94: y_9 + y_15 + y_20 + y_32 + y_38 + y_44 + y_57 + y_60 + y_90 + y_94
   + y_95 >= 1
 c_1_95: y_9 + y_15 + y_16 + y_57 + y_83 + y_90 + y_93 + y_94 + y_95 >= 1
 c_1_96: y_19 + y_28 + y_29 + y_37 + y_50 + y_65 + y_87 + y_96 >= 1
 c_1_97: y_0 + y_21 + y_22 + y_27 + y_40 + y_54 + y_66 + y_68 + y_74 + y_77
   + y_79 + y_86 + y_92 + y_97 >= 1
 c_1_98: y_2 + y_10 + y_14 + y_15 + y_20 + y_22 + y_24 + y_33 + y_54 + y_59
   + y_72 + y_79 + y_92 + y_98 >= 1
 c_1_99: y_6 + y_7 + y_8 + y_13 + y_31 + y_39 + y_70 + y_71 + y_88 + y_99
   >= 1
Bounds
 Constant = 1
Binaries
 y_0 y_1 y_2 y_3 y_4 y_5 y_6 y_7 y_8 y_9 y_10 y_11 y_12 y_13 y_14 y_15 y_16
 y_17 y_18 y_19 y_20 y_21 y_22 y_23 y_24 y_25 y_26 y_27 y_28 y_29 y_30 y_31
 y_32 y_33 y_34 y_35 y_36 y_37 y_38 y_39 y_40 y_41 y_42 y_43 y_44 y_45 y_46
 y_47 y_48 y_49 y_50 y_51 y_52 y_53 y_54 y_55 y_56 y_57 y_58 y_59 y_60 y_61
 y_62 y_63 y_64 y_65 y_66 y_67 y_68 y_69 y_70 y_71 y_72 y_73 y_74 y_75 y_76
 y_77 y_78 y_79 y_80 y_81 y_82 y_83 y_84 y_85 y_86 y_87 y_88 y_89 y_90 y_91
 y_92 y_93 y_94 y_95 y_96 y_97 y_98 y_99
End
